(declare-fun c_ack!357 () (_ BitVec 64))
(declare-fun a_ack!358 () (_ BitVec 32))
(declare-fun b_ack!356 () (_ BitVec 64))
(assert (not (fp.lt ((_ to_fp 11 53) c_ack!357) ((_ to_fp 11 53) #x0000000000000000))))
(assert (not (bvslt a_ack!358 #x00000000)))
(assert (not (fp.gt ((_ to_fp 11 53) c_ack!357) ((_ to_fp 11 53) #x40862e42fefa39ef))))
(assert (not (= #x00000000 a_ack!358)))
(assert (not (fp.lt ((_ to_fp 11 53) c_ack!357) ((_ to_fp 11 53) #x0000000000000000))))
(assert (not (fp.gt ((_ to_fp 11 53) c_ack!357) ((_ to_fp 11 53) #x40862e42fefa39ef))))
(assert (not (= #x00000000 a_ack!358)))
(assert (not (= #x00000001 a_ack!358)))
(assert (not (fp.eq ((_ to_fp 11 53) c_ack!357) ((_ to_fp 11 53) #x0000000000000000))))
(assert (fp.lt (fp.mul roundNearestTiesToEven
               (fp.abs ((_ to_fp 11 53) b_ack!356))
               ((_ to_fp 11 53) c_ack!357))
       ((_ to_fp 11 53) #x3ff0000000000000)))

(check-sat)
(exit)
